WARNING: for repeatability, setting FPU to use double precision
============================[ Problem Statistics ]=============================
|                                                                             |
|  Number of variables:            27                                         |
|  Number of clauses:             117                                         |
|  Parse time:                   0.00 s                                       |
|                                                                             |
============================[ Search Statistics ]==============================
| Conflicts |          ORIGINAL         |          LEARNT          | Progress |
|           |    Vars  Clauses Literals |    Limit  Clauses Lit/Cl |          |
===============================================================================
===============================================================================
restarts              : 1
conflicts             : 7              (3420 /sec)
decisions             : 7              (0.00 % random) (3420 /sec)
propagations          : 104            (50806 /sec)
conflict literals     : 12             (7.69 % deleted)
Memory used           : 11.00 MB
CPU time              : 0.002047 s

UNSATISFIABLE
